QPLIB_3780
LIQ
minimize
168 # number of variables
72 # number of constraints
0.0 # default value for linear coefficients in objective
24 # number of non-default linear coefficients in objective
1 0.1
2 0.2
3 0.3
4 0.4
5 0.5
6 0.6
7 0.7
8 0.8
9 0.9
10 1.0
11 1.1
12 1.2
13 1.0
14 1.0
15 1.0
16 1.0
17 1.0
18 1.0
19 1.0
20 1.0
21 1.0
22 1.0
23 1.0
24 1.0
0.0 # objective constant
144 # number of quadratic terms in all constraints
61 16634641 1 -2.0
61 16634641 1 -2.0
61 16634641 1 -2.0
61 16634641 1 -2.0
61 16634641 1 -2.0
61 16634641 1 -2.0
61 16634641 1 -2.0
61 16634641 1 -2.0
61 16634641 1 -2.0
61 16634641 1 -2.0
61 16634641 1 -2.0
61 16634641 1 -2.0
62 1 -1063305215 -2.0
62 1 -1063305215 -2.0
62 1 -1063305215 -2.0
62 1 -1063305215 -2.0
62 1 -1063305215 -2.0
62 1 -1063305215 -2.0
62 1 -1063305215 -2.0
62 1 -1063305215 -2.0
62 1 -1063305215 -2.0
62 1 -1063305215 -2.0
62 1 -1063305215 -2.0
62 1 -1063305215 -2.0
63 690216089 1 -2.0
63 690216089 1 -2.0
63 690216089 1 -2.0
63 690216089 1 -2.0
63 690216089 1 -2.0
63 690216089 1 -2.0
63 690216089 1 -2.0
63 690216089 1 -2.0
63 690216089 1 -2.0
63 690216089 1 -2.0
63 690216089 1 -2.0
63 690216089 1 -2.0
64 32763 -1063305215 -2.0
64 32763 -1063305215 -2.0
64 32763 -1063305215 -2.0
64 32763 -1063305215 -2.0
64 32763 -1063305215 -2.0
64 32763 -1063305215 -2.0
64 32763 -1063305215 -2.0
64 32763 -1063305215 -2.0
64 32763 -1063305215 -2.0
64 32763 -1063305215 -2.0
64 32763 -1063305215 -2.0
64 32763 -1063305215 -2.0
65 1 1 -2.0
65 1 1 -2.0
65 1 1 -2.0
65 1 1 -2.0
65 1 1 -2.0
65 1 1 -2.0
65 1 1 -2.0
65 1 1 -2.0
65 1 1 -2.0
65 1 1 -2.0
65 1 1 -2.0
65 1 1 -2.0
66 1 -1063305215 -2.0
66 1 -1063305215 -2.0
66 1 -1063305215 -2.0
66 1 -1063305215 -2.0
66 1 -1063305215 -2.0
66 1 -1063305215 -2.0
66 1 -1063305215 -2.0
66 1 -1063305215 -2.0
66 1 -1063305215 -2.0
66 1 -1063305215 -2.0
66 1 -1063305215 -2.0
66 1 -1063305215 -2.0
67 1 1 -2.0
67 1 1 -2.0
67 1 1 -2.0
67 1 1 -2.0
67 1 1 -2.0
67 1 1 -2.0
67 1 1 -2.0
67 1 1 -2.0
67 1 1 -2.0
67 1 1 -2.0
67 1 1 -2.0
67 1 1 -2.0
68 1 -1063305215 -2.0
68 1 -1063305215 -2.0
68 1 -1063305215 -2.0
68 1 -1063305215 -2.0
68 1 -1063305215 -2.0
68 1 -1063305215 -2.0
68 1 -1063305215 -2.0
68 1 -1063305215 -2.0
68 1 -1063305215 -2.0
68 1 -1063305215 -2.0
68 1 -1063305215 -2.0
68 1 -1063305215 -2.0
69 16634881 1 -2.0
69 16634881 1 -2.0
69 16634881 1 -2.0
69 16634881 1 -2.0
69 16634881 1 -2.0
69 16634881 1 -2.0
69 16634881 1 -2.0
69 16634881 1 -2.0
69 16634881 1 -2.0
69 16634881 1 -2.0
69 16634881 1 -2.0
69 16634881 1 -2.0
70 1 -1063305215 -2.0
70 1 -1063305215 -2.0
70 1 -1063305215 -2.0
70 1 -1063305215 -2.0
70 1 -1063305215 -2.0
70 1 -1063305215 -2.0
70 1 -1063305215 -2.0
70 1 -1063305215 -2.0
70 1 -1063305215 -2.0
70 1 -1063305215 -2.0
70 1 -1063305215 -2.0
70 1 -1063305215 -2.0
71 258 1 -2.0
71 258 1 -2.0
71 258 1 -2.0
71 258 1 -2.0
71 258 1 -2.0
71 258 1 -2.0
71 258 1 -2.0
71 258 1 -2.0
71 258 1 -2.0
71 258 1 -2.0
71 258 1 -2.0
71 258 1 -2.0
72 1 -1063305215 -2.0
72 1 -1063305215 -2.0
72 1 -1063305215 -2.0
72 1 -1063305215 -2.0
72 1 -1063305215 -2.0
72 1 -1063305215 -2.0
72 1 -1063305215 -2.0
72 1 -1063305215 -2.0
72 1 -1063305215 -2.0
72 1 -1063305215 -2.0
72 1 -1063305215 -2.0
72 1 -1063305215 -2.0
480 # number of linear terms in all constraints
1 25 350.0
1 26 450.0
1 27 550.0
1 28 650.0
1 29 700.0
1 30 740.0
1 31 800.0
1 32 840.0
1 33 910.0
1 34 960.0
1 35 1010.0
1 36 1060.0
2 37 350.0
2 38 450.0
2 39 550.0
2 40 650.0
2 41 700.0
2 42 740.0
2 43 800.0
2 44 840.0
2 45 910.0
2 46 960.0
2 47 1010.0
2 48 1060.0
3 49 350.0
3 50 450.0
3 51 550.0
3 52 650.0
3 53 700.0
3 54 740.0
3 55 800.0
3 56 840.0
3 57 910.0
3 58 960.0
3 59 1010.0
3 60 1060.0
4 61 350.0
4 62 450.0
4 63 550.0
4 64 650.0
4 65 700.0
4 66 740.0
4 67 800.0
4 68 840.0
4 69 910.0
4 70 960.0
4 71 1010.0
4 72 1060.0
5 73 350.0
5 74 450.0
5 75 550.0
5 76 650.0
5 77 700.0
5 78 740.0
5 79 800.0
5 80 840.0
5 81 910.0
5 82 960.0
5 83 1010.0
5 84 1060.0
6 85 350.0
6 86 450.0
6 87 550.0
6 88 650.0
6 89 700.0
6 90 740.0
6 91 800.0
6 92 840.0
6 93 910.0
6 94 960.0
6 95 1010.0
6 96 1060.0
7 97 350.0
7 98 450.0
7 99 550.0
7 100 650.0
7 101 700.0
7 102 740.0
7 103 800.0
7 104 840.0
7 105 910.0
7 106 960.0
7 107 1010.0
7 108 1060.0
8 109 350.0
8 110 450.0
8 111 550.0
8 112 650.0
8 113 700.0
8 114 740.0
8 115 800.0
8 116 840.0
8 117 910.0
8 118 960.0
8 119 1010.0
8 120 1060.0
9 121 350.0
9 122 450.0
9 123 550.0
9 124 650.0
9 125 700.0
9 126 740.0
9 127 800.0
9 128 840.0
9 129 910.0
9 130 960.0
9 131 1010.0
9 132 1060.0
10 133 350.0
10 134 450.0
10 135 550.0
10 136 650.0
10 137 700.0
10 138 740.0
10 139 800.0
10 140 840.0
10 141 910.0
10 142 960.0
10 143 1010.0
10 144 1060.0
11 145 350.0
11 146 450.0
11 147 550.0
11 148 650.0
11 149 700.0
11 150 740.0
11 151 800.0
11 152 840.0
11 153 910.0
11 154 960.0
11 155 1010.0
11 156 1060.0
12 157 350.0
12 158 450.0
12 159 550.0
12 160 650.0
12 161 700.0
12 162 740.0
12 163 800.0
12 164 840.0
12 165 910.0
12 166 960.0
12 167 1010.0
12 168 1060.0
13 25 -350.0
13 26 -450.0
13 27 -550.0
13 28 -650.0
13 29 -700.0
13 30 -740.0
13 31 -800.0
13 32 -840.0
13 33 -910.0
13 34 -960.0
13 35 -1010.0
13 36 -1060.0
14 37 -350.0
14 38 -450.0
14 39 -550.0
14 40 -650.0
14 41 -700.0
14 42 -740.0
14 43 -800.0
14 44 -840.0
14 45 -910.0
14 46 -960.0
14 47 -1010.0
14 48 -1060.0
15 49 -350.0
15 50 -450.0
15 51 -550.0
15 52 -650.0
15 53 -700.0
15 54 -740.0
15 55 -800.0
15 56 -840.0
15 57 -910.0
15 58 -960.0
15 59 -1010.0
15 60 -1060.0
16 61 -350.0
16 62 -450.0
16 63 -550.0
16 64 -650.0
16 65 -700.0
16 66 -740.0
16 67 -800.0
16 68 -840.0
16 69 -910.0
16 70 -960.0
16 71 -1010.0
16 72 -1060.0
17 73 -350.0
17 74 -450.0
17 75 -550.0
17 76 -650.0
17 77 -700.0
17 78 -740.0
17 79 -800.0
17 80 -840.0
17 81 -910.0
17 82 -960.0
17 83 -1010.0
17 84 -1060.0
18 85 -350.0
18 86 -450.0
18 87 -550.0
18 88 -650.0
18 89 -700.0
18 90 -740.0
18 91 -800.0
18 92 -840.0
18 93 -910.0
18 94 -960.0
18 95 -1010.0
18 96 -1060.0
19 97 -350.0
19 98 -450.0
19 99 -550.0
19 100 -650.0
19 101 -700.0
19 102 -740.0
19 103 -800.0
19 104 -840.0
19 105 -910.0
19 106 -960.0
19 107 -1010.0
19 108 -1060.0
20 109 -350.0
20 110 -450.0
20 111 -550.0
20 112 -650.0
20 113 -700.0
20 114 -740.0
20 115 -800.0
20 116 -840.0
20 117 -910.0
20 118 -960.0
20 119 -1010.0
20 120 -1060.0
21 121 -350.0
21 122 -450.0
21 123 -550.0
21 124 -650.0
21 125 -700.0
21 126 -740.0
21 127 -800.0
21 128 -840.0
21 129 -910.0
21 130 -960.0
21 131 -1010.0
21 132 -1060.0
22 133 -350.0
22 134 -450.0
22 135 -550.0
22 136 -650.0
22 137 -700.0
22 138 -740.0
22 139 -800.0
22 140 -840.0
22 141 -910.0
22 142 -960.0
22 143 -1010.0
22 144 -1060.0
23 145 -350.0
23 146 -450.0
23 147 -550.0
23 148 -650.0
23 149 -700.0
23 150 -740.0
23 151 -800.0
23 152 -840.0
23 153 -910.0
23 154 -960.0
23 155 -1010.0
23 156 -1060.0
24 157 -350.0
24 158 -450.0
24 159 -550.0
24 160 -650.0
24 161 -700.0
24 162 -740.0
24 163 -800.0
24 164 -840.0
24 165 -910.0
24 166 -960.0
24 167 -1010.0
24 168 -1060.0
25 25 1.0
25 26 1.0
25 27 1.0
25 28 1.0
25 29 1.0
25 30 1.0
25 31 1.0
25 32 1.0
25 33 1.0
25 34 1.0
25 35 1.0
25 36 1.0
26 37 1.0
26 38 1.0
26 39 1.0
26 40 1.0
26 41 1.0
26 42 1.0
26 43 1.0
26 44 1.0
26 45 1.0
26 46 1.0
26 47 1.0
26 48 1.0
27 49 1.0
27 50 1.0
27 51 1.0
27 52 1.0
27 53 1.0
27 54 1.0
27 55 1.0
27 56 1.0
27 57 1.0
27 58 1.0
27 59 1.0
27 60 1.0
28 61 1.0
28 62 1.0
28 63 1.0
28 64 1.0
28 65 1.0
28 66 1.0
28 67 1.0
28 68 1.0
28 69 1.0
28 70 1.0
28 71 1.0
28 72 1.0
29 73 1.0
29 74 1.0
29 75 1.0
29 76 1.0
29 77 1.0
29 78 1.0
29 79 1.0
29 80 1.0
29 81 1.0
29 82 1.0
29 83 1.0
29 84 1.0
30 85 1.0
30 86 1.0
30 87 1.0
30 88 1.0
30 89 1.0
30 90 1.0
30 91 1.0
30 92 1.0
30 93 1.0
30 94 1.0
30 95 1.0
30 96 1.0
31 97 1.0
31 98 1.0
31 99 1.0
31 100 1.0
31 101 1.0
31 102 1.0
31 103 1.0
31 104 1.0
31 105 1.0
31 106 1.0
31 107 1.0
31 108 1.0
32 109 1.0
32 110 1.0
32 111 1.0
32 112 1.0
32 113 1.0
32 114 1.0
32 115 1.0
32 116 1.0
32 117 1.0
32 118 1.0
32 119 1.0
32 120 1.0
33 121 1.0
33 122 1.0
33 123 1.0
33 124 1.0
33 125 1.0
33 126 1.0
33 127 1.0
33 128 1.0
33 129 1.0
33 130 1.0
33 131 1.0
33 132 1.0
34 133 1.0
34 134 1.0
34 135 1.0
34 136 1.0
34 137 1.0
34 138 1.0
34 139 1.0
34 140 1.0
34 141 1.0
34 142 1.0
34 143 1.0
34 144 1.0
35 145 1.0
35 146 1.0
35 147 1.0
35 148 1.0
35 149 1.0
35 150 1.0
35 151 1.0
35 152 1.0
35 153 1.0
35 154 1.0
35 155 1.0
35 156 1.0
36 157 1.0
36 158 1.0
36 159 1.0
36 160 1.0
36 161 1.0
36 162 1.0
36 163 1.0
36 164 1.0
36 165 1.0
36 166 1.0
36 167 1.0
36 168 1.0
37 1 1.0
37 13 -1.0
38 2 1.0
38 14 -1.0
39 3 1.0
39 15 -1.0
40 4 1.0
40 16 -1.0
41 5 1.0
41 17 -1.0
42 6 1.0
42 18 -1.0
43 7 1.0
43 19 -1.0
44 8 1.0
44 20 -1.0
45 9 1.0
45 21 -1.0
46 10 1.0
46 22 -1.0
47 11 1.0
47 23 -1.0
48 12 1.0
48 24 -1.0
49 1 -48.0
49 13 1.0
50 2 -48.0
50 14 1.0
51 3 -48.0
51 15 1.0
52 4 -48.0
52 16 1.0
53 5 -48.0
53 17 1.0
54 6 -48.0
54 18 1.0
55 7 -48.0
55 19 1.0
56 8 -48.0
56 20 1.0
57 9 -48.0
57 21 1.0
58 10 -48.0
58 22 1.0
59 11 -48.0
59 23 1.0
60 12 -48.0
60 24 1.0
1.79769313486232E+308 # value for infinity
-1.79769313486232E+308 # default left-hand-side value
0 # number of non-default left-hand-sides
0.0 # default right-hand-side value
48 # number of non-default right-hand-sides
1 2100.0
2 2100.0
3 2100.0
4 2100.0
5 2100.0
6 2100.0
7 2100.0
8 2100.0
9 2100.0
10 2100.0
11 2100.0
12 2100.0
13 -2000.0
14 -2000.0
15 -2000.0
16 -2000.0
17 -2000.0
18 -2000.0
19 -2000.0
20 -2000.0
21 -2000.0
22 -2000.0
23 -2000.0
24 -2000.0
25 5.0
26 5.0
27 5.0
28 5.0
29 5.0
30 5.0
31 5.0
32 5.0
33 5.0
34 5.0
35 5.0
36 5.0
61 -10.0
62 -28.0
63 -48.0
64 -28.0
65 -40.0
66 -30.0
67 -21.0
68 -22.0
69 -8.0
70 -8.0
71 -9.0
72 -8.0
0.0 # default variable lower bound value
0 # number of non-default variable lower bounds
5.0 # default variable upper bound value
24 # number of non-default variable upper bounds
1 1.0
2 1.0
3 1.0
4 1.0
5 1.0
6 1.0
7 1.0
8 1.0
9 1.0
10 1.0
11 1.0
12 1.0
13 48.0
14 48.0
15 48.0
16 48.0
17 48.0
18 48.0
19 48.0
20 48.0
21 48.0
22 48.0
23 48.0
24 48.0
0.0 # default variable primal value in starting point
0 # number of non-default variable primal values in starting point
0.0 # default constraint dual value in starting point
0 # number of non-default constraint dual values in starting point
0.0 # default variable bound dual value in starting point
0 # number of non-default variable bound dual values in starting point
0 # number of non-default variable names
0 # number of non-default constraint names
